&CONTROL
	pseudo_dir='/home/shaharpit/MeamGdH/dft/qe_potentials/',
	outdir='/home/shaharpit/tmp',
	calculation='scf',
	nstep=150,
	prefix=2345,
/

&SYSTEM
	occupations='smearing',
	degauss=0.01,
	ecutwfc=50,
	lspinorb=.TRUE,
	noncolin=.TRUE,
	ibrav=0,
	nat=2,
	ntyp=1,
/

&ELECTRONS
	adaptive_thr=.TRUE,
	electron_maxstep=500,
/

&IONS
	ion_dynamics='bfgs',
/

&CELL
/

ATOMIC_SPECIES
Gd 157.25 Gd.rel-pbe-spdn-kjpaw_psl.1.0.0.UPF
H 1.00794 H.pbe-kjpaw_psl.0.1.UPF

ATOMIC_POSITIONS crystal
Gd 0.6667 0.3333 0.75
Gd 0.3333 0.6667 0.25

K_POINTS automatic
	4 4 4 0 0 0 

CELL_PARAMETERS {angstrom}
	3.7306 0.0 0.0 
	-1.8653 3.2308 0.0 
	0.0 0.0 5.9563 